(declare-fun a_ack!2243 () (_ BitVec 32))
(declare-fun b_ack!2238 () (_ BitVec 32))
(declare-fun c_ack!2239 () (_ BitVec 32))
(declare-fun d_ack!2240 () (_ BitVec 32))
(declare-fun e_ack!2241 () (_ BitVec 32))
(declare-fun f_ack!2242 () (_ BitVec 32))
(assert (not (bvslt a_ack!2243 #x00000000)))
(assert (not (bvslt b_ack!2238 #x00000000)))
(assert (not (bvslt c_ack!2239 #x00000000)))
(assert (not (bvslt b_ack!2238 #x00000000)))
(assert (not (bvslt (bvadd a_ack!2243 c_ack!2239) b_ack!2238)))
(assert (= #x00000000 (bvand (bvadd a_ack!2243 b_ack!2238 c_ack!2239) #x00000001)))
(assert (not (bvslt a_ack!2243 #x00000000)))
(assert (not (bvslt b_ack!2238 #x00000000)))
(assert (not (bvslt c_ack!2239 #x00000000)))
(assert (= #x00000000 (bvand (bvadd a_ack!2243 d_ack!2240) #x00000001)))
(assert (= #x00000000 (bvand (bvadd b_ack!2238 e_ack!2241) #x00000001)))
(assert (= #x00000000 (bvand (bvadd c_ack!2239 f_ack!2242) #x00000001)))
(assert (= #x00000000 (bvadd d_ack!2240 e_ack!2241 f_ack!2242)))
(assert (= #x00000000 d_ack!2240))
(assert (= #x00000000 e_ack!2241))
(assert (= #x00000000 f_ack!2242))
(assert (not (= #x00000002 (bvsrem (bvadd a_ack!2243 b_ack!2238 c_ack!2239) #x00000004))))
(assert (let ((a!1 (bvslt (bvsub (bvsdiv (bvadd b_ack!2238 e_ack!2241) #x00000002)
                         (bvsdiv (bvsub c_ack!2239 f_ack!2242) #x00000002))
                  #x00000000)))
  (not a!1)))
(assert (let ((a!1 (bvslt (bvsub (bvsdiv (bvsub a_ack!2243 d_ack!2240) #x00000002)
                         (bvsdiv (bvadd c_ack!2239 f_ack!2242) #x00000002))
                  (bvsub (bvsdiv (bvadd b_ack!2238 e_ack!2241) #x00000002)
                         (bvsdiv (bvsub c_ack!2239 f_ack!2242) #x00000002)))))
  (not a!1)))
(assert (let ((a!1 (bvslt (bvsdiv (bvsub (bvadd a_ack!2243 b_ack!2238) c_ack!2239)
                          #x00000002)
                  (bvsdiv (bvsub a_ack!2243 d_ack!2240) #x00000002))))
  (not a!1)))
(assert (not (bvslt (bvsdiv (bvsub a_ack!2243 d_ack!2240) #x00000002)
            (bvsdiv (bvadd b_ack!2238 e_ack!2241) #x00000002))))
(assert (let ((a!1 (bvult a_ack!2243
                  (bvsdiv (bvsub (bvadd a_ack!2243 b_ack!2238) c_ack!2239)
                          #x00000002))))
  (not a!1)))
(assert (= (bvsdiv (bvsub (bvadd a_ack!2243 b_ack!2238) c_ack!2239) #x00000002)
   a_ack!2243))
(assert (let ((a!1 (bvult b_ack!2238
                  (bvsdiv (bvsub (bvadd a_ack!2243 b_ack!2238) c_ack!2239)
                          #x00000002))))
  (not a!1)))
(assert (let ((a!1 (= (bvsdiv (bvsub (bvadd a_ack!2243 b_ack!2238) c_ack!2239)
                      #x00000002)
              b_ack!2238)))
  (not a!1)))

(check-sat)
(exit)
